certificates/rado_a6_c118_N20.drat
-20 0
18 0
-8 0
6 0
10 0
-16 0
-19 0
14 0
12 0
0
